c contains hamiltonian cycle
p col 20 30
e 1 2
e 1 5
e 1 6
e 2 3
e 2 8
e 3 4
e 3 10
e 4 5
e 4 12
e 5 14
e 6 7
e 6 15
e 7 8
e 7 17
e 8 9
e 9 10
e 9 18
e 10 11
e 11 12
e 11 19
e 12 13
e 13 14
e 13 20
e 14 15
e 15 16
e 16 20
e 16 17
e 17 18
e 18 19
e 19 20